(declare-const r Relation)
(declare-fun p101 (World) Bool)
(declare-fun p102 (World) Bool)
(declare-fun p103 (World) Bool)
(declare-fun p201 (World) Bool)
(declare-fun p202 (World) Bool)
(declare-fun p203 (World) Bool)
(declare-fun p301 (World) Bool)
(declare-fun p302 (World) Bool)
(declare-fun p303 (World) Bool)
(declare-fun p401 (World) Bool)
(declare-fun p402 (World) Bool)
(declare-fun p403 (World) Bool)
(assert (not (=> (dia r (and (and (and (or (or (p101 world) (box r (p102 world))) (box r (p103 world))) (or (or (p201 world) (p202 world)) (box r (p203 world)))) (or (or (p301 world) (p302 world)) (p303 world))) (or (or (p401 world) (p402 world)) (p403 world)))) (dia r (or (or (or (or (or (or (or (or (or (or (or (or (or (or (or (or (or (and (p101 world) (p201 world)) (and (p101 world) (p301 world))) (and (p101 world) (p401 world))) (and (p201 world) (p301 world))) (and (p201 world) (p401 world))) (and (p301 world) (p401 world))) (and (box r (p102 world)) (p202 world))) (and (box r (p102 world)) (p302 world))) (and (box r (p102 world)) (p402 world))) (and (p202 world) (p302 world))) (and (p202 world) (p402 world))) (and (p302 world) (p402 world))) (and (box r (p103 world)) (box r (p203 world)))) (and (box r (p103 world)) (p303 world))) (and (box r (p103 world)) (p403 world))) (and (box r (p203 world)) (p303 world))) (and (box r (p203 world)) (p403 world))) (and (p303 world) (p403 world)))))))
